
===== New CPLEX run =====
Instance: /home/yorig/tuner/mpils-tests/instances/miplib/easy/lotsize.mps
Config: /scratch/yorig/mpils-results-grid-seconds-5-no-mip-start/easy/16proc/seed-3/4_lotsize_seed-3_20260502_223218/expansion/config_param_CPXPARAM_Preprocessing_BoundStrength_0_iter_3.prm
========================

Selected objective sense:  MINIMIZE
Selected objective  name:  R1921
Selected RHS        name:  B
Selected bound      name:  BOUND
Version identifier: 22.1.2.0 | 2024-11-26 | 0edbb82fd
CPXPARAM_Threads                                 8
CPXPARAM_Parallel                                1
CPXPARAM_MIP_Cuts_Cliques                        2
CPXPARAM_Preprocessing_BoundStrength             0
CPXPARAM_MIP_Cuts_FlowCovers                     2
CPXPARAM_MIP_Cuts_Implied                        1
CPXPARAM_MIP_Limits_GomoryCand                   800
CPXPARAM_MIP_Cuts_Gomory                         -1
CPXPARAM_MIP_Cuts_PathCut                        1
CPXPARAM_MIP_Cuts_MIRCut                         2
CPXPARAM_MIP_Cuts_Disjunctive                    2
CPXPARAM_Emphasis_MIP                            1
CPXPARAM_MIP_Strategy_BBInterval                 4
CPXPARAM_TimeLimit                               5
Tried aggregator 1 time.
Reduced MIP has 1920 rows, 2985 columns, and 6565 nonzeros.
Reduced MIP has 1195 binaries, 0 generals, 0 SOSs, and 0 indicators.
Presolve time = 0.00 sec. (2.95 ticks)
Probing time = 0.00 sec. (1.73 ticks)
Tried aggregator 1 time.
Detecting symmetries...
Reduced MIP has 1920 rows, 2985 columns, and 6565 nonzeros.
Reduced MIP has 1195 binaries, 0 generals, 0 SOSs, and 0 indicators.
Presolve time = 0.00 sec. (4.39 ticks)
Probing time = 0.00 sec. (1.73 ticks)
Clique table members: 155.
MIP emphasis: integer feasibility.
MIP search method: dynamic search.
Parallel mode: deterministic, using up to 8 threads.
Root relaxation solution time = 0.01 sec. (8.08 ticks)

        Nodes                                         Cuts/
   Node  Left     Objective  IInf  Best Integer    Best Bound    ItCnt     Gap

      0     0   348385.3466   473                 348385.3466      895         
      0     0   562544.1944   561                   Cuts: 580     1944         
      0     0   718940.4346   608                   Cuts: 580     2588         
*     0+    0                       1.09202e+07   718940.4346            93.42%
*     0+    0                      8456904.0000   718940.4346            91.50%
      0     0   865058.9883   616  8456904.0000     Cuts: 580     3306   89.77%
Detecting symmetries...
      0     2   865058.9883   616  8456904.0000   865058.9883     3306   89.77%
Elapsed time = 0.28 sec. (404.62 ticks, tree = 0.02 MB, solutions = 2)
    204   119   983375.9157   538  8456904.0000   866244.1342    10210   89.76%
   1136  1013  1157602.9716   423  8456904.0000   866244.1342    19971   89.76%

Performing restart 1

Repeating presolve.
Tried aggregator 1 time.
Reduced MIP has 1920 rows, 2985 columns, and 6565 nonzeros.
Reduced MIP has 1195 binaries, 0 generals, 0 SOSs, and 0 indicators.
Presolve time = 0.00 sec. (3.36 ticks)
Tried aggregator 1 time.
Reduced MIP has 1920 rows, 2985 columns, and 6565 nonzeros.
Reduced MIP has 1195 binaries, 0 generals, 0 SOSs, and 0 indicators.
Presolve time = 0.00 sec. (4.58 ticks)
Represolve time = 0.01 sec. (14.57 ticks)
   1751     0  1049333.2693   591  8456904.0000     Cuts: 580    32599   87.59%
   1751     0  1125182.3239   590  8456904.0000     Cuts: 580    33239   86.70%
   1751     0  1188709.4750   578  8456904.0000     Cuts: 580    33857   85.94%
   1751     2  1188709.4750   578  8456904.0000  1188709.4750    33857   85.94%
*  1761+   10                      2576577.0000  1188782.6619            53.86%
*  1771+   20                      2507833.0000  1188782.6619            52.60%
   1780    31  1214958.4456   513  2507833.0000  1188782.6619    34612   52.60%
*  1781+   30                      2477535.0000  1188782.6619            52.02%
*  1791+   40                      2263977.0000  1188782.6619            47.49%
*  1801+   50                      2130191.0000  1188782.6619            44.19%
   1812    62  1303549.8577   519  2130191.0000  1188782.6619    35900   44.19%
*  1820+   62                      2111020.0000  1189986.6748            43.63%
   1827    72  1326938.5464   517  2111020.0000  1189986.6748    39827   43.63%
*  1844+   84                      1826213.0000  1190302.8388            34.82%
*  1871+   98                      1802195.0000  1190302.8388            33.95%
   1900    95  1275539.3371   591  1802195.0000  1200855.8245    52265   33.37%
*  1961+  174                      1799605.0000  1200855.8245            33.27%
   2017   182  1315490.3631   527  1799605.0000  1200855.8245    63175   33.27%
*  2072+  208                      1757808.0000  1200855.8245            31.68%
*  2090+  254                      1738307.0000  1200855.8245            30.92%
   2208   324  1355910.3476   472  1738307.0000  1200855.8245    68961   30.92%
*  2501+  434                      1730214.0000  1200855.8245            30.59%
*  2879+  934                      1726595.0000  1200855.8245            30.45%
*  2962  1000      integral     0  1724963.0000  1200855.8245    86074   30.38%
Elapsed time = 3.10 sec. (4347.94 ticks, tree = 12.49 MB, solutions = 24)
*  4745+ 2382                      1583443.0000  1202204.7013            24.08%
*  4787+ 2382                      1554530.0000  1202204.7013            22.66%
*  4836+ 2382                      1550144.0000  1202204.7013            22.45%
*  4880+ 2382                      1549572.0000  1202204.7013            22.42%
*  4967+ 2382                      1549131.0000  1202204.7013            22.39%
   5341  2370  1308646.5495   544  1549131.0000  1202204.7013   126993   22.39%
   7581  4472  1319327.7742   517  1549131.0000  1202204.7013   169952   22.39%
*  8038+ 4786                      1540939.0000  1202204.7013            21.98%
*  8101+ 4836                      1540716.0000  1202204.7013            21.97%
*  8278+ 4890                      1540502.0000  1202204.7013            21.96%
*  8327+ 4954                      1537659.0000  1202204.7013            21.82%
*  8347+ 4954                      1531211.0000  1202204.7013            21.49%
*  8777+ 5011                      1528430.0000  1202204.7013            21.34%
*  8912+ 5327                      1526006.0000  1202204.7013            21.22%
*  8971+ 5085                      1524045.0000  1202204.7013            21.12%
*  8998+ 5085                      1522187.0000  1202204.7013            21.02%

Clique cuts applied:  0
Cover cuts applied:  8
Implied bound cuts applied:  1
Flow cuts applied:  982
Mixed integer rounding cuts applied:  612
Flow path cuts applied:  52
Multi commodity flow cuts applied:  10
Lift and project cuts applied:  17
Disjunctive cuts applied:  0
Cone linearizations applied:  0

Root node processing (before b&c):
  Real time             =    0.27 sec. (403.43 ticks)
Parallel b&c, 8 threads:
  Real time             =    4.73 sec. (6766.12 ticks)
  Sync time (average)   =    0.35 sec.
  Wait time (average)   =    0.00 sec.
                          ------------
Total (root+branch&cut) =    5.00 sec. (7169.55 ticks)
Gap: 21.02%
Upper bound: 1.52219e+06
Lower bound: 1.2022e+06
End of CPLEX run. Time: 5.00559 seconds

===== New CPLEX run =====
Instance: /home/yorig/tuner/mpils-tests/instances/miplib/easy/lotsize.mps
Config: /scratch/yorig/mpils-results-grid-seconds-5-no-mip-start/easy/16proc/seed-3/4_lotsize_seed-3_20260502_223218/expansion/config_param_CPXPARAM_Preprocessing_BoundStrength_1_iter_3.prm
========================

Selected objective sense:  MINIMIZE
Selected objective  name:  R1921
Selected RHS        name:  B
Selected bound      name:  BOUND
Version identifier: 22.1.2.0 | 2024-11-26 | 0edbb82fd
CPXPARAM_Threads                                 8
CPXPARAM_Parallel                                1
CPXPARAM_MIP_Cuts_Cliques                        2
CPXPARAM_Preprocessing_BoundStrength             1
CPXPARAM_MIP_Cuts_FlowCovers                     2
CPXPARAM_MIP_Cuts_Implied                        1
CPXPARAM_MIP_Limits_GomoryCand                   800
CPXPARAM_MIP_Cuts_Gomory                         -1
CPXPARAM_MIP_Cuts_PathCut                        1
CPXPARAM_MIP_Cuts_MIRCut                         2
CPXPARAM_MIP_Cuts_Disjunctive                    2
CPXPARAM_Emphasis_MIP                            1
CPXPARAM_MIP_Strategy_BBInterval                 4
CPXPARAM_TimeLimit                               5
Tried aggregator 1 time.
MIP Presolve eliminated 595 rows and 0 columns.
MIP Presolve added 1190 rows and 0 columns.
MIP Presolve modified 10 coefficients.
Reduced MIP has 2515 rows, 2985 columns, and 7755 nonzeros.
Reduced MIP has 1195 binaries, 0 generals, 0 SOSs, and 0 indicators.
Presolve time = 0.00 sec. (4.53 ticks)
Probing fixed 0 vars, tightened 5487 bounds.
Probing time = 0.01 sec. (18.38 ticks)
Tried aggregator 2 times.
Detecting symmetries...
MIP Presolve modified 1206 coefficients.
Aggregator did 10 substitutions.
Reduced MIP has 2505 rows, 2975 columns, and 7735 nonzeros.
Reduced MIP has 1195 binaries, 0 generals, 0 SOSs, and 0 indicators.
Presolve time = 0.00 sec. (6.66 ticks)
Probing fixed 0 vars, tightened 2401 bounds.
Probing time = 0.00 sec. (6.41 ticks)
Clique table members: 190.
MIP emphasis: integer feasibility.
MIP search method: dynamic search.
Parallel mode: deterministic, using up to 8 threads.
Root relaxation solution time = 0.01 sec. (9.85 ticks)

        Nodes                                         Cuts/
   Node  Left     Objective  IInf  Best Integer    Best Bound    ItCnt     Gap

      0     0   348385.3466   472                 348385.3466      882         
      0     0   583577.4049   435                   Cuts: 726     1819         
      0     0   818290.4051   692                   Cuts: 726     2653         
*     0+    0                       1.01740e+07   818290.4051            91.96%
*     0+    0                      7973370.0000   818290.4051            89.74%
      0     0   947113.9594   686  7973370.0000     Cuts: 726     3332   88.12%
Detecting symmetries...
      0     2   947113.9594   686  7973370.0000   949700.7247     3332   88.09%
Elapsed time = 0.41 sec. (613.49 ticks, tree = 0.02 MB, solutions = 2)
    429   393   999212.8472   595  7973370.0000   949700.7247     7651   88.09%
   1024   831  1146818.7408   469  7973370.0000   949700.7247    13905   88.09%

Performing restart 1

Repeating presolve.
Tried aggregator 1 time.
MIP Presolve modified 1156 coefficients.
Reduced MIP has 2505 rows, 2975 columns, and 7735 nonzeros.
Reduced MIP has 1195 binaries, 0 generals, 0 SOSs, and 0 indicators.
Presolve time = 0.00 sec. (3.78 ticks)
Tried aggregator 1 time.
MIP Presolve modified 1023 coefficients.
Reduced MIP has 2505 rows, 2975 columns, and 7735 nonzeros.
Reduced MIP has 1195 binaries, 0 generals, 0 SOSs, and 0 indicators.
Presolve time = 0.00 sec. (5.12 ticks)
Represolve time = 0.02 sec. (18.91 ticks)
   1738     0  1070214.8248   702  7973370.0000     Cuts: 726    27978   86.58%
   1738     0  1165198.3647   693  7973370.0000     Cuts: 726    28821   85.39%
   1738     0  1234987.6657   687  7973370.0000     Cuts: 726    29661   84.51%
   1738     2  1234987.6657   687  7973370.0000  1234987.6657    29661   84.51%
   1756    20  1328013.4883   568  7973370.0000  1235146.5611    30362   84.51%
   1778    42  1340941.5650   524  7973370.0000  1235146.5611    30893   84.51%
   1820    82  1380459.1774   465  7973370.0000  1235146.5611    31930   84.51%
   1826     8  1329154.1230   681  7973370.0000  1235743.5270    30010   84.50%
   1836    99  1511766.6834   555  7973370.0000  1235743.5270    39544   84.50%
   1876   139  1567338.0858   427  7973370.0000  1267254.4862    48450   84.11%
   2484   502  1466188.4968   569  7973370.0000  1311144.0615    86471   83.56%
Elapsed time = 3.94 sec. (5475.15 ticks, tree = 0.67 MB, solutions = 2)
*  2685+  708                      1907560.0000  1311144.0615            31.27%
*  2711+  746                      1902543.0000  1311144.0615            31.08%
*  2730+  747                      1900795.0000  1311144.0615            31.02%
*  3457+ 1360                      1895423.0000  1311144.0615            30.83%
*  3464+ 1360                      1882943.0000  1311144.0615            30.37%
*  3596+ 1426                      1875871.0000  1311144.0615            30.10%
*  3601+ 1426                      1875471.0000  1311144.0615            30.09%
*  3617+ 1601                      1825858.0000  1311144.0615            28.19%
   3630  1470  1502222.5757   423  1825858.0000  1311144.0615   125977   28.19%
*  3989+ 1665                      1760024.0000  1311144.0615            25.50%
*  3994+ 1664                      1741023.0000  1311144.0615            24.69%
*  4021+ 1823                      1689309.0000  1311144.0615            22.39%
*  4050+ 1823                      1596313.0000  1311144.0615            17.86%
*  4083+ 1823                      1592870.0000  1311144.0615            17.69%
*  4110+ 1823                      1587301.0000  1311144.0615            17.40%
*  4137+ 1823                      1582669.0000  1311144.0615            17.16%
*  4168+ 1823                      1581569.0000  1311144.0615            17.10%

Clique cuts applied:  1
Cover cuts applied:  23
Implied bound cuts applied:  11
Flow cuts applied:  1224
Mixed integer rounding cuts applied:  1420
Flow path cuts applied:  78
Multi commodity flow cuts applied:  24
Lift and project cuts applied:  20
Disjunctive cuts applied:  0
Cone linearizations applied:  0

Root node processing (before b&c):
  Real time             =    0.41 sec. (611.53 ticks)
Parallel b&c, 8 threads:
  Real time             =    4.60 sec. (6374.68 ticks)
  Sync time (average)   =    0.34 sec.
  Wait time (average)   =    0.00 sec.
                          ------------
Total (root+branch&cut) =    5.01 sec. (6986.20 ticks)
Gap: 17.1%
Upper bound: 1.58157e+06
Lower bound: 1.31114e+06
End of CPLEX run. Time: 5.00903 seconds
